files/upTests/lettings1/0001.eprime.solution
language ESSENCE' 1.0
$ minion Nodes: 5
$ minion TotalTime: 0.000983
$ Savile Row TotalTime: 0.323
letting x_SetExplicitVarSize_tuple2 be [1, 1, 3;int(1..3)]
letting x_SetExplicitVarSize_tuple1 be [false, false, true;int(1..3)]
